N = 9;
H = 5;
T = 2;

avail = array3d(1..N, 1..H, 1..T, [0, 6, 7, 9, 2, 9, 5, 9, 2, 8, 10, 2, 0, 10, 5, 0, 3, 5, 0, 2, 6, 10, 0, 10, 9, 4, 7, 8, 3, 10, 3, 0, 9, 9, 9, 1, 8, 0, 4, 4, 8, 0, 5, 2, 4, 7, 4, 9, 0, 10, 7, 8, 5, 4, 7, 7, 2, 6, 5, 10, 6, 5, 0, 1, 3, 0, 2, 2, 5, 5, 5, 9, 6, 4, 5, 9, 5, 9, 4, 8, 7, 3, 6, 10, 2, 9, 5, 7, 1, 9]);

r = array2d(1..H, 1..T, [2, 3, 1, 2, 4, 3, 0, 3, 2, 4]);
